(set-logic BV) (define-fun origCir ((n200 Bool) (n222 Bool) (n209 Bool) (i23 Bool)) Bool (and (not (and (and n222 n209) n200)) i23)) (synth-fun skel ((n200 Bool) (n222 Bool) (n209 Bool) (i23 Bool)) Bool) (declare-var n200 Bool) (declare-var n222 Bool) (declare-var n209 Bool) (declare-var i23 Bool) (constraint (= (origCir n200 n222 n209 i23) (skel n200 n222 n209 i23))) (check-synth)
